&GLOBAL
  PROJECT C60_strain_+0.0
  RUN_TYPE ENERGY
  PRINT_LEVEL LOW
&END GLOBAL
&FORCE_EVAL
  METHOD Quickstep
  &DFT
    BASIS_SET_FILE_NAME BASIS_MOLOPT
    POTENTIAL_FILE_NAME GTH_POTENTIALS
    &MGRID
      CUTOFF 400
    &END MGRID
    &QS
      METHOD GPW
    &END QS
    &SCF
      SCF_GUESS ATOMIC
      MAX_SCF 50
      EPS_SCF 1.0E-6
      IGNORE_CONVERGENCE_FAILURE TRUE
      &OT
        MINIMIZER CG
        PRECONDITIONER FULL_SINGLE_INVERSE
      &END OT
    &END SCF
    &XC
      &XC_FUNCTIONAL
        &PBE
        &END PBE
      &END XC_FUNCTIONAL
    &END XC
  &END DFT
  &SUBSYS
    &CELL
A  36.67    0.00    0.00
B   0.00   30.84    0.00
C   0.00    0.00   20.00
    &END CELL
    &COORD
C         0.0000000000        0.0000000000        0.0000000000
C         1.4000000000        0.0000000000        0.0000000000
C         0.7000000000        1.2124355650        0.0000000000
C         0.7000000000        0.4041451883        1.1428571429
C         2.1000000000        0.4041451883        1.1428571429
C         1.4000000000        1.2124355650        1.1428571429
C         3.5000000000        0.0000000000        0.0000000000
C         4.9000000000        0.0000000000        0.0000000000
C         4.2000000000        1.2124355650        0.0000000000
C         4.2000000000        0.4041451883        1.1428571429
C         5.6000000000        0.4041451883        1.1428571429
C         4.9000000000        1.2124355650        1.1428571429
C         7.0000000000        0.0000000000        0.0000000000
C         8.4000000000        0.0000000000        0.0000000000
C         7.7000000000        1.2124355650        0.0000000000
C         7.7000000000        0.4041451883        1.1428571429
C         9.1000000000        0.4041451883        1.1428571429
C         8.4000000000        1.2124355650        1.1428571429
C        10.5000000000        0.0000000000        0.0000000000
C        11.9000000000        0.0000000000        0.0000000000
C        11.2000000000        1.2124355650        0.0000000000
C        11.2000000000        0.4041451883        1.1428571429
C        12.6000000000        0.4041451883        1.1428571429
C        11.9000000000        1.2124355650        1.1428571429
C        14.0000000000        0.0000000000        0.0000000000
C        15.4000000000        0.0000000000        0.0000000000
C        14.7000000000        1.2124355650        0.0000000000
C        14.7000000000        0.4041451883        1.1428571429
C        16.1000000000        0.4041451883        1.1428571429
C        15.4000000000        1.2124355650        1.1428571429
C        17.5000000000        0.0000000000        0.0000000000
C        18.9000000000        0.0000000000        0.0000000000
C        18.2000000000        1.2124355650        0.0000000000
C        18.2000000000        0.4041451883        1.1428571429
C        19.6000000000        0.4041451883        1.1428571429
C        18.9000000000        1.2124355650        1.1428571429
C        21.0000000000        0.0000000000        0.0000000000
C        22.4000000000        0.0000000000        0.0000000000
C        21.7000000000        1.2124355650        0.0000000000
C        21.7000000000        0.4041451883        1.1428571429
C        23.1000000000        0.4041451883        1.1428571429
C        22.4000000000        1.2124355650        1.1428571429
C        24.5000000000        0.0000000000        0.0000000000
C        25.9000000000        0.0000000000        0.0000000000
C        25.2000000000        1.2124355650        0.0000000000
C        25.2000000000        0.4041451883        1.1428571429
C        26.6000000000        0.4041451883        1.1428571429
C        25.9000000000        1.2124355650        1.1428571429
C        28.0000000000        0.0000000000        0.0000000000
C        29.4000000000        0.0000000000        0.0000000000
C        28.7000000000        1.2124355650        0.0000000000
C        28.7000000000        0.4041451883        1.1428571429
C        30.1000000000        0.4041451883        1.1428571429
C        29.4000000000        1.2124355650        1.1428571429
C        31.5000000000        0.0000000000        0.0000000000
C        32.9000000000        0.0000000000        0.0000000000
C        32.2000000000        1.2124355650        0.0000000000
C        32.2000000000        0.4041451883        1.1428571429
C        33.6000000000        0.4041451883        1.1428571429
C        32.9000000000        1.2124355650        1.1428571429
C        35.0000000000        0.0000000000        0.0000000000
C        36.4000000000        0.0000000000        0.0000000000
C        35.7000000000        1.2124355650        0.0000000000
C        35.7000000000        0.4041451883        1.1428571429
C        37.1000000000        0.4041451883        1.1428571429
C        36.4000000000        1.2124355650        1.1428571429
    &END COORD
    &KIND C
      BASIS_SET DZVP-MOLOPT-GTH
      POTENTIAL GTH-PBE
    &END KIND
  &END SUBSYS
&END FORCE_EVAL