&GLOBAL
  PROJECT pbe_vdw_test
  RUN_TYPE ENERGY
  PRINT_LEVEL MEDIUM
&END GLOBAL

&FORCE_EVAL
  METHOD Quickstep
  &DFT
    BASIS_SET_FILE_NAME BASIS_MOLOPT
    POTENTIAL_FILE_NAME GTH_POTENTIALS
    
    &MGRID
      CUTOFF 400
      REL_CUTOFF 50
    &END MGRID
    
    &QS
      METHOD GPW
      EPS_DEFAULT 1.0E-10
    &END QS
    
    &SCF
      SCF_GUESS ATOMIC
      MAX_SCF 50
      EPS_SCF 1.0E-5
      IGNORE_CONVERGENCE_FAILURE
      
      &OT
        MINIMIZER CG
        PRECONDITIONER FULL_SINGLE_INVERSE
        ENERGY_GAP 0.1
      &END OT
    &END SCF
    
    ! PBE + rVV10 泛函（论文中 MD 模拟使用）
    &XC
      &XC_FUNCTIONAL
        &PBE
        &END PBE
      &END XC_FUNCTIONAL
      
      &vdW_POTENTIAL
        DISPERSION_FUNCTIONAL NON_LOCAL
        &NON_LOCAL
          TYPE RVV10
          PARAMETERS 6.3 0.0093  ! b=6.3 for rVV10
          CUTOFF 200
        &END NON_LOCAL
      &END vdW_POTENTIAL
    &END XC
    
    &PRINT
      &MO
        EIGENVALUES
        &EACH
          QS_SCF 0
        &END EACH
      &END MO
    &END PRINT
  &END DFT
  
  &SUBSYS
    &CELL
      ABC 10.0 10.0 10.0
      PERIODIC NONE
    &END CELL
    
    &COORD
C   0.000000   0.000000   0.000000
C   1.420000   0.000000   0.000000
    &END COORD
    
    &KIND C
      BASIS_SET DZVP-MOLOPT-SR-GTH
      POTENTIAL GTH-PBE-q4
    &END KIND
  &END SUBSYS
&END FORCE_EVAL
