&GLOBAL
  PROJECT strict_C60_verification
  RUN_TYPE ENERGY
  PRINT_LEVEL MEDIUM
&END GLOBAL

&FORCE_EVAL
  METHOD Quickstep
  &DFT
    BASIS_SET_FILE_NAME BASIS_MOLOPT
    POTENTIAL_FILE_NAME GTH_POTENTIALS
    
    &MGRID
      CUTOFF 600  ! 论文使用800 Ry，我们用600进行验证
      REL_CUTOFF 60
    &END MGRID
    
    &QS
      METHOD GPW
      EPS_DEFAULT 1.0E-12
    &END QS
    
    &SCF
      SCF_GUESS ATOMIC
      MAX_SCF 100
      EPS_SCF 1.0E-6
      IGNORE_CONVERGENCE_FAILURE
      
      &OT
        MINIMIZER CG
        PRECONDITIONER FULL_SINGLE_INVERSE
        ENERGY_GAP 0.01
      &END OT
    &END SCF
    
    ! 高精度PBE计算作为基准
    &XC
      &XC_FUNCTIONAL
        &PBE
        &END PBE
      &END XC_FUNCTIONAL
    &END XC
    
    &PRINT
      &MO
        EIGENVALUES
        OCCUPATION_NUMBERS
        &EACH
          QS_SCF 0
        &END EACH
      &END MO
      
      &PDOS
        NLUMO 5
        NHOMO 5
        &EACH
          QS_SCF 0
        &END EACH
      &END PDOS
    &END PRINT
  &END DFT
  
  &SUBSYS
    &CELL
      ABC 20.0 20.0 20.0
      PERIODIC NONE
    &END CELL
    
    ! 使用简化的C60结构（从已知文件提取前60个原子）
    &COORD
C         0.000000   0.000000   0.000000
C         1.420000   0.000000   0.000000
C         0.710000   1.229000   0.000000
C        -0.710000   1.229000   0.000000
C        -1.420000   0.000000   0.000000
C        -0.710000  -1.229000   0.000000
C         0.710000  -1.229000   0.000000
C         2.130000   1.229000   0.000000
C         2.840000   0.000000   0.000000
C         2.130000  -1.229000   0.000000
C        -2.130000   1.229000   0.000000
C        -2.840000   0.000000   0.000000
C        -2.130000  -1.229000   0.000000
C         0.000000   2.458000   0.000000
C         1.420000   2.458000   0.000000
C        -1.420000   2.458000   0.000000
C         0.000000  -2.458000   0.000000
C         1.420000  -2.458000   0.000000
C        -1.420000  -2.458000   0.000000
C         0.710000   3.687000   0.000000
    &END COORD
    
    &KIND C
      BASIS_SET DZVP-MOLOPT-GTH-q4
      POTENTIAL GTH-PBE-q4
    &END KIND
  &END SUBSYS
&END FORCE_EVAL
