&GLOBAL
  PROJECT baseline_validation
  RUN_TYPE ENERGY
  PRINT_LEVEL MEDIUM
&END GLOBAL

&FORCE_EVAL
  METHOD Quickstep
  &DFT
    BASIS_SET_FILE_NAME BASIS_MOLOPT
    POTENTIAL_FILE_NAME GTH_POTENTIALS
    
    &MGRID
      CUTOFF 400
      REL_CUTOFF 50
    &END MGRID
    
    &QS
      METHOD GPW
      EPS_DEFAULT 1.0E-10
    &END QS
    
    &SCF
      SCF_GUESS ATOMIC
      MAX_SCF 100
      EPS_SCF 1.0E-5
      IGNORE_CONVERGENCE_FAILURE
      
      &OT
        MINIMIZER CG
        PRECONDITIONER FULL_SINGLE_INVERSE
        ENERGY_GAP 0.1
      &END OT
      
      &PRINT
        &RESTART OFF
        &END RESTART
      &END PRINT
    &END SCF
    
    &XC
      &XC_FUNCTIONAL PBE
      &END XC_FUNCTIONAL
    &END XC
    
  &END DFT
  
  &SUBSYS
    &CELL
      ABC 25.0 25.0 25.0
      PERIODIC NONE
    &END CELL
    
    &COORD
# C60 fullerene coordinates (Angstrom)
C     3.451370    0.685000    0.000000
C     3.451370   -0.685000    0.000000
C     2.850000    1.370000    1.181000
C     2.850000    1.370000   -1.181000
C     2.850000   -1.370000    1.181000
C     2.850000   -1.370000   -1.181000
C     1.898740    2.055000    0.685000
C     1.898740    2.055000   -0.685000
C     1.898740   -2.055000    0.685000
C     1.898740   -2.055000   -0.685000
C     1.181000    2.850000    1.370000
C     1.181000    2.850000   -1.370000
C     1.181000   -2.850000    1.370000
C     1.181000   -2.850000   -1.370000
C     0.685000    3.451370    0.000000
C    -0.685000    3.451370    0.000000
C     0.685000   -3.451370    0.000000
C    -0.685000   -3.451370    0.000000
C     0.000000    3.451370    0.685000
C     0.000000    3.451370   -0.685000
C     0.000000   -3.451370    0.685000
C     0.000000   -3.451370   -0.685000
C    -1.181000    2.850000    1.370000
C    -1.181000    2.850000   -1.370000
C    -1.181000   -2.850000    1.370000
C    -1.181000   -2.850000   -1.370000
C    -1.898740    2.055000    0.685000
C    -1.898740    2.055000   -0.685000
C    -1.898740   -2.055000    0.685000
C    -1.898740   -2.055000   -0.685000
C    -2.850000    1.370000    1.181000
C    -2.850000    1.370000   -1.181000
C    -2.850000   -1.370000    1.181000
C    -2.850000   -1.370000   -1.181000
C    -3.451370    0.685000    0.000000
C    -3.451370   -0.685000    0.000000
C    -2.055000    1.898740    0.685000
C    -2.055000    1.898740   -0.685000
C    -2.055000   -1.898740    0.685000
C    -2.055000   -1.898740   -0.685000
C    -1.370000    2.850000    1.181000
C    -1.370000    2.850000   -1.181000
C    -1.370000   -2.850000    1.181000
C    -1.370000   -2.850000   -1.181000
C    -0.685000    1.898740    2.055000
C    -0.685000    1.898740   -2.055000
C    -0.685000   -1.898740    2.055000
C    -0.685000   -1.898740   -2.055000
C     0.685000    1.898740    2.055000
C     0.685000    1.898740   -2.055000
C     0.685000   -1.898740    2.055000
C     0.685000   -1.898740   -2.055000
C     1.370000    2.850000    1.181000
C     1.370000    2.850000   -1.181000
C     1.370000   -2.850000    1.181000
C     1.370000   -2.850000   -1.181000
C     2.055000    1.898740    0.685000
C     2.055000    1.898740   -0.685000
C     2.055000   -1.898740    0.685000
C     2.055000   -1.898740   -0.685000
    &END COORD
    
    &KIND C
      BASIS_SET DZVP-MOLOPT-SR-GTH
      POTENTIAL GTH-PBE-q4
    &END KIND
    
  &END SUBSYS
&END FORCE_EVAL
