&GLOBAL
  PROJECT C60_Li_0.15_doped
  RUN_TYPE ENERGY
  PRINT_LEVEL MEDIUM
&END GLOBAL

&FORCE_EVAL
  METHOD Quickstep
  &DFT
    BASIS_SET_FILE_NAME /opt/homebrew/Cellar/cp2k/2025.1/share/cp2k/data/BASIS_MOLOPT
    POTENTIAL_FILE_NAME /opt/homebrew/Cellar/cp2k/2025.1/share/cp2k/data/GTH_POTENTIALS
    &XC
      &XC_FUNCTIONAL PBE
      &END XC_FUNCTIONAL
    &END XC
    &SCF
      SCF_GUESS ATOMIC
      EPS_SCF 1.0E-6
      MAX_SCF 200
    &END SCF
  &END DFT
  
  &SUBSYS
    &CELL
      A 36.67 0.000000 0.000000
      B 0.000000 30.84 0.000000
      C 0.000000 0.000000 20.000000
      PERIODIC XYZ
    &END CELL
    
    &COORD
      # C60分子坐标 (完整结构)
      C  0.741520  0.000000  3.550740
      C  1.497300  1.212100  3.137200
      C  2.638100  0.741520  2.352900
      C  13.518480  0.000000  3.550740
      C  13.518480  0.000000  10.709260
      C  0.741520  0.000000  10.709260
      C  3.550740  0.741520  0.000000
      C  3.550740  13.518480  0.000000
      C  10.709260  13.518480  0.000000
      C  10.709260  0.741520  0.000000
      C  0.000000  3.550740  0.741520
      C  0.000000  3.550740  13.518480
      C  0.000000  10.709260  13.518480
      C  0.000000  10.709260  0.741520
      C  0.741520  7.130000  10.680740
      C  13.518480  7.130000  10.680740
      C  13.518480  7.130000  3.579260
      C  0.741520  7.130000  3.579260
      C  3.550740  7.871520  7.130000
      C  3.550740  6.388480  7.130000
      C  10.709260  6.388480  7.130000
      C  10.709260  7.871520  7.130000
      C  0.000000  10.680740  7.871520
      C  0.000000  10.680740  6.388480
      C  0.000000  3.579260  6.388480
      C  0.000000  3.579260  7.871520
      C  7.871520  0.000000  10.680740
      C  6.388480  0.000000  10.680740
      C  6.388480  0.000000  3.579260
      C  7.871520  0.000000  3.579260
      C  10.680740  0.741520  7.130000
      C  10.680740  13.518480  7.130000
      C  3.579260  13.518480  7.130000
      C  3.579260  0.741520  7.130000
      C  7.130000  3.550740  7.871520
      C  7.130000  3.550740  6.388480
      C  7.130000  10.709260  6.388480
      C  7.130000  10.709260  7.871520
      C  7.871520  7.130000  3.550740
      C  6.388480  7.130000  3.550740
      C  6.388480  7.130000  10.709260
      C  7.871520  7.130000  10.709260
      C  10.680740  7.871520  0.000000
      C  10.680740  6.388480  0.000000
      C  3.579260  6.388480  0.000000
      C  3.579260  7.871520  0.000000
      C  7.130000  10.680740  0.741520
      C  7.130000  10.680740  13.518480
      C  7.130000  3.579260  13.518480
      C  7.130000  3.579260  0.741520
      C  12.762700  13.047900  3.137200
      C  12.762700  1.212100  11.122800
      C  1.497300  13.047900  11.122800
      C  3.137200  1.497300  1.212100
      C  3.137200  12.762700  13.047900
      C  11.122800  12.762700  1.212100
      C  11.122800  1.497300  13.047900
      C  1.212100  3.137200  1.497300
      C  13.047900  3.137200  12.762700
      C  1.212100  11.122800  12.762700
      # 掺杂原子坐标
      Li  3.000000  0.000000  0.000000
      Li  3.500000  0.300000  0.000000
      Li  4.000000  0.600000  0.000000
      Li  4.500000  0.900000  0.000000
      Li  5.000000  1.200000  0.000000
      Li  5.500000  1.500000  0.000000
    &END COORD
    
    &KIND C
      BASIS_SET MOLOPT-DZVP
      POTENTIAL GTH-PBE
    &END KIND
    
    &KIND Li
      BASIS_SET MOLOPT-DZVP
      POTENTIAL GTH-PBE
    &END KIND
  &END SUBSYS
&END FORCE_EVAL
