&GLOBAL
  PROJECT C60_Na_0.10_doped
  RUN_TYPE ENERGY
  PRINT_LEVEL MEDIUM
&END GLOBAL

&FORCE_EVAL
  METHOD Quickstep
  &DFT
    &XC
      &XC_FUNCTIONAL PBE
      &END XC_FUNCTIONAL
    &END XC
    &SCF
      SCF_GUESS ATOMIC
      EPS_SCF 1.0E-6
      MAX_SCF 200
    &END SCF
  &END DFT
  
  &SUBSYS
    &CELL
      A 36.67 0.000000 0.000000
      B 0.000000 30.84 0.000000
      C 0.000000 0.000000 20.000000
      PERIODIC XYZ
    &END CELL
    
    &COORD
      # C60分子坐标 (简化)
      C  0.000000  0.000000  0.000000
      C  1.400000  0.000000  0.000000
      C  0.700000  1.212436  0.000000
      C -0.700000  1.212436  0.000000
      C -1.400000  0.000000  0.000000
      C -0.700000 -1.212436  0.000000
      # 添加更多C原子坐标...
      C  2.100000  0.000000  0.000000
      C  1.400000  1.212436  0.000000
      C  0.000000  2.424872  0.000000
      C -1.400000  1.212436  0.000000
      C -2.100000  0.000000  0.000000
      C -1.400000 -1.212436  0.000000
      C  0.000000 -2.424872  0.000000
      C  1.400000 -1.212436  0.000000
      # 掺杂原子坐标
      Na  3.000000  0.000000  0.000000
      Na  3.500000  0.300000  0.000000
      Na  4.000000  0.600000  0.000000
      Na  4.500000  0.900000  0.000000
      Na  5.000000  1.200000  0.000000
      Na  5.500000  1.500000  0.000000
    &END COORD
    
    &KIND C
      BASIS_SET MOLOPT-DZVP
      POTENTIAL GTH-PBE
    &END KIND
    
    &KIND Na
      BASIS_SET MOLOPT-DZVP
      POTENTIAL GTH-PBE
    &END KIND
  &END SUBSYS
&END FORCE_EVAL
