&GLOBAL
  PROJECT C60_strain_+2.5_K_single_optimal
  RUN_TYPE ENERGY
  PRINT_LEVEL MEDIUM
&END GLOBAL

&FORCE_EVAL
  METHOD Quickstep
  &DFT
    &XC
      &XC_FUNCTIONAL PBE
      &END XC_FUNCTIONAL
    &END XC
    &SCF
      SCF_GUESS ATOMIC
      EPS_SCF 1.0E-6
      MAX_SCF 200
    &END SCF
  &END DFT

  &SUBSYS
    &CELL
      A 112.760250 0.000000 0.000000
      B 0.000000 31.611000 0.000000
      C 0.000000 0.000000 20.000000
      PERIODIC XYZ
    &END CELL

    &COORD
      # 3个C60分子坐标 (多分子体系用于最优条件研究)
      C  0.741520  0.000000  3.550740
      C  37.411520  0.000000  3.550740
      C  74.081520  0.000000  3.550740
      C  1.497300  1.212100  3.137200
      C  38.167300  1.212100  3.137200
      C  74.837300  1.212100  3.137200
      C  2.638100  0.741520  2.352900
      C  39.308100  0.741520  2.352900
      C  75.978100  0.741520  2.352900
      C  13.518480  0.000000  3.550740
      C  50.188480  0.000000  3.550740
      C  86.858480  0.000000  3.550740
      C  13.518480  0.000000  10.709260
      C  50.188480  0.000000  10.709260
      C  86.858480  0.000000  10.709260
      C  0.741520  0.000000  10.709260
      C  37.411520  0.000000  10.709260
      C  74.081520  0.000000  10.709260
      C  3.550740  0.741520  0.000000
      C  40.220740  0.741520  0.000000
      C  76.890740  0.741520  0.000000
      C  3.550740  13.518480  0.000000
      C  40.220740  13.518480  0.000000
      C  76.890740  13.518480  0.000000
      C  10.709260  13.518480  0.000000
      C  47.379260  13.518480  0.000000
      C  84.049260  13.518480  0.000000
      C  10.709260  0.741520  0.000000
      C  47.379260  0.741520  0.000000
      C  84.049260  0.741520  0.000000
      C  0.000000  3.550740  0.741520
      C  36.670000  3.550740  0.741520
      C  73.340000  3.550740  0.741520
      C  0.000000  3.550740  13.518480
      C  36.670000  3.550740  13.518480
      C  73.340000  3.550740  13.518480
      C  0.000000  10.709260  13.518480
      C  36.670000  10.709260  13.518480
      C  73.340000  10.709260  13.518480
      C  0.000000  10.709260  0.741520
      C  36.670000  10.709260  0.741520
      C  73.340000  10.709260  0.741520
      C  0.741520  7.130000  10.680740
      C  37.411520  7.130000  10.680740
      C  74.081520  7.130000  10.680740
      C  13.518480  7.130000  10.680740
      C  50.188480  7.130000  10.680740
      C  86.858480  7.130000  10.680740
      C  13.518480  7.130000  3.579260
      C  50.188480  7.130000  3.579260
      C  86.858480  7.130000  3.579260
      C  0.741520  7.130000  3.579260
      C  37.411520  7.130000  3.579260
      C  74.081520  7.130000  3.579260
      C  3.550740  7.871520  7.130000
      C  40.220740  7.871520  7.130000
      C  76.890740  7.871520  7.130000
      C  3.550740  6.388480  7.130000
      C  40.220740  6.388480  7.130000
      C  76.890740  6.388480  7.130000
      C  10.709260  6.388480  7.130000
      C  47.379260  6.388480  7.130000
      C  84.049260  6.388480  7.130000
      C  10.709260  7.871520  7.130000
      C  47.379260  7.871520  7.130000
      C  84.049260  7.871520  7.130000
      C  0.000000  10.680740  7.871520
      C  36.670000  10.680740  7.871520
      C  73.340000  10.680740  7.871520
      C  0.000000  10.680740  6.388480
      C  36.670000  10.680740  6.388480
      C  73.340000  10.680740  6.388480
      C  0.000000  3.579260  6.388480
      C  36.670000  3.579260  6.388480
      C  73.340000  3.579260  6.388480
      C  0.000000  3.579260  7.871520
      C  36.670000  3.579260  7.871520
      C  73.340000  3.579260  7.871520
      C  7.871520  0.000000  10.680740
      C  44.541520  0.000000  10.680740
      C  81.211520  0.000000  10.680740
      C  6.388480  0.000000  10.680740
      C  43.058480  0.000000  10.680740
      C  79.728480  0.000000  10.680740
      C  6.388480  0.000000  3.579260
      C  43.058480  0.000000  3.579260
      C  79.728480  0.000000  3.579260
      C  7.871520  0.000000  3.579260
      C  44.541520  0.000000  3.579260
      C  81.211520  0.000000  3.579260
      C  10.680740  0.741520  7.130000
      C  47.350740  0.741520  7.130000
      C  84.020740  0.741520  7.130000
      C  10.680740  13.518480  7.130000
      C  47.350740  13.518480  7.130000
      C  84.020740  13.518480  7.130000
      C  3.579260  13.518480  7.130000
      C  40.249260  13.518480  7.130000
      C  76.919260  13.518480  7.130000
      C  3.579260  0.741520  7.130000
      C  40.249260  0.741520  7.130000
      C  76.919260  0.741520  7.130000
      C  7.130000  3.550740  7.871520
      C  43.800000  3.550740  7.871520
      C  80.470000  3.550740  7.871520
      C  7.130000  3.550740  6.388480
      C  43.800000  3.550740  6.388480
      C  80.470000  3.550740  6.388480
      C  7.130000  10.709260  6.388480
      C  43.800000  10.709260  6.388480
      C  80.470000  10.709260  6.388480
      C  7.130000  10.709260  7.871520
      C  43.800000  10.709260  7.871520
      C  80.470000  10.709260  7.871520
      C  7.871520  7.130000  3.550740
      C  44.541520  7.130000  3.550740
      C  81.211520  7.130000  3.550740
      C  6.388480  7.130000  3.550740
      C  43.058480  7.130000  3.550740
      C  79.728480  7.130000  3.550740
      C  6.388480  7.130000  10.709260
      C  43.058480  7.130000  10.709260
      C  79.728480  7.130000  10.709260
      C  7.871520  7.130000  10.709260
      C  44.541520  7.130000  10.709260
      C  81.211520  7.130000  10.709260
      C  10.680740  7.871520  0.000000
      C  47.350740  7.871520  0.000000
      C  84.020740  7.871520  0.000000
      C  10.680740  6.388480  0.000000
      C  47.350740  6.388480  0.000000
      C  84.020740  6.388480  0.000000
      C  3.579260  6.388480  0.000000
      C  40.249260  6.388480  0.000000
      C  76.919260  6.388480  0.000000
      C  3.579260  7.871520  0.000000
      C  40.249260  7.871520  0.000000
      C  76.919260  7.871520  0.000000
      C  7.130000  10.680740  0.741520
      C  43.800000  10.680740  0.741520
      C  80.470000  10.680740  0.741520
      C  7.130000  10.680740  13.518480
      C  43.800000  10.680740  13.518480
      C  80.470000  10.680740  13.518480
      C  7.130000  3.579260  13.518480
      C  43.800000  3.579260  13.518480
      C  80.470000  3.579260  13.518480
      C  7.130000  3.579260  0.741520
      C  43.800000  3.579260  0.741520
      C  80.470000  3.579260  0.741520
      C  12.762700  13.047900  3.137200
      C  49.432700  13.047900  3.137200
      C  86.102700  13.047900  3.137200
      C  12.762700  1.212100  11.122800
      C  49.432700  1.212100  11.122800
      C  86.102700  1.212100  11.122800
      C  1.497300  13.047900  11.122800
      C  38.167300  13.047900  11.122800
      C  74.837300  13.047900  11.122800
      C  3.137200  1.497300  1.212100
      C  39.807200  1.497300  1.212100
      C  76.477200  1.497300  1.212100
      C  3.137200  12.762700  13.047900
      C  39.807200  12.762700  13.047900
      C  76.477200  12.762700  13.047900
      C  11.122800  12.762700  1.212100
      C  47.792800  12.762700  1.212100
      C  84.462800  12.762700  1.212100
      C  11.122800  1.497300  13.047900
      C  47.792800  1.497300  13.047900
      C  84.462800  1.497300  13.047900
      C  1.212100  3.137200  1.497300
      C  37.882100  3.137200  1.497300
      C  74.552100  3.137200  1.497300
      C  13.047900  3.137200  12.762700
      C  49.717900  3.137200  12.762700
      C  86.387900  3.137200  12.762700
      C  1.212100  11.122800  12.762700
      C  37.882100  11.122800  12.762700
      C  74.552100  11.122800  12.762700
      # 掺杂原子坐标
      K  3.000000  0.000000  0.000000
      K  3.500000  0.300000  0.000000
      K  4.000000  0.600000  0.000000
      K  4.500000  0.900000  0.000000
      K  5.000000  1.200000  0.000000
      K  5.500000  1.500000  0.000000
    &END COORD

    &KIND C
      BASIS_SET MOLOPT-DZVP
      POTENTIAL GTH-PBE
    &END KIND

    &KIND K
      BASIS_SET MOLOPT-DZVP
      POTENTIAL GTH-PBE
    &END KIND
  &END SUBSYS
&END FORCE_EVAL
