&GLOBAL
  PROJECT C60_strain_+5.0_Li+K_mixed_optimal
  RUN_TYPE ENERGY
  PRINT_LEVEL MEDIUM
&END GLOBAL

&FORCE_EVAL
  METHOD Quickstep
  &DFT
    &XC
      &XC_FUNCTIONAL PBE
      &END XC_FUNCTIONAL
    &END XC
    &SCF
      SCF_GUESS ATOMIC
      EPS_SCF 1.0E-6
      MAX_SCF 200
    &END SCF
  &END DFT

  &SUBSYS
    &CELL
      A 115.510500 0.000000 0.000000
      B 0.000000 32.382000 0.000000
      C 0.000000 0.000000 20.000000
      PERIODIC XYZ
    &END CELL

    &COORD
      # C60分子坐标 (简化)
      C  0.000000  0.000000  0.000000
      C  1.400000  0.000000  0.000000
      C  0.700000  1.212436  0.000000
      C -0.700000  1.212436  0.000000
      C -1.400000  0.000000  0.000000
      C -0.700000 -1.212436  0.000000
      C  2.100000  0.000000  0.000000
      C  1.400000  1.212436  0.000000
      C  0.000000  2.424872  0.000000
      C -1.400000  1.212436  0.000000
      C -2.100000  0.000000  0.000000
      C -1.400000 -1.212436  0.000000
      C  0.000000 -2.424872  0.000000
      C  1.400000 -1.212436  0.000000
      # 混合掺杂原子坐标
      Li  3.000000  0.000000  0.000000
      Li  3.300000  0.200000  0.000000
      Li  3.600000  0.400000  0.000000
      K  4.000000  0.500000  0.000000
      K  4.300000  0.700000  0.000000
      K  4.600000  0.900000  0.000000
    &END COORD

    &KIND C
      BASIS_SET MOLOPT-DZVP
      POTENTIAL GTH-PBE
    &END KIND
    &KIND Li
      BASIS_SET MOLOPT-DZVP
      POTENTIAL GTH-PBE
    &END KIND
    &KIND K
      BASIS_SET MOLOPT-DZVP
      POTENTIAL GTH-PBE
    &END KIND
  &END SUBSYS
&END FORCE_EVAL
