&GLOBAL
  PROJECT c60_simple_test
  RUN_TYPE ENERGY
  PRINT_LEVEL MEDIUM
&END GLOBAL

&FORCE_EVAL
  METHOD Quickstep
  &DFT
    BASIS_SET_FILE_NAME BASIS_MOLOPT
    POTENTIAL_FILE_NAME GTH_POTENTIALS
    
    &MGRID
      CUTOFF 400
      REL_CUTOFF 50
    &END MGRID
    
    &QS
      METHOD GPW
      EPS_DEFAULT 1.0E-8
    &END QS
    
    &SCF
      SCF_GUESS ATOMIC
      MAX_SCF 50
      EPS_SCF 1.0E-5
      IGNORE_CONVERGENCE_FAILURE
      
      &OT
        MINIMIZER CG
        PRECONDITIONER FULL_SINGLE_INVERSE
      &END OT
    &END SCF
    
    &XC
      &XC_FUNCTIONAL
        &PBE
        &END PBE
      &END XC_FUNCTIONAL
    &END XC
    
    &PRINT
      &MO
        EIGENVALUES
        &EACH
          QS_SCF 0
        &END EACH
      &END MO
    &END PRINT
  &END DFT
  
  &SUBSYS
    &CELL
      ABC 20.0 20.0 20.0
      PERIODIC NONE
    &END CELL
    
    &TOPOLOGY
      COORD_FILE_NAME ../C60.xyz
      COORD_FILE_FORMAT XYZ
    &END TOPOLOGY
    
    &KIND C
      BASIS_SET DZVP-MOLOPT-GTH-q4
      POTENTIAL GTH-PBE-q4
    &END KIND
  &END SUBSYS
&END FORCE_EVAL
