&GLOBAL
  PROJECT C60_strain_+2.5_Li_doped_synergy
  RUN_TYPE ENERGY
  PRINT_LEVEL MEDIUM
&END GLOBAL

&FORCE_EVAL
  METHOD Quickstep
  &DFT
    &XC
      &XC_FUNCTIONAL PBE
      &END XC_FUNCTIONAL
    &END XC
    &SCF
      SCF_GUESS ATOMIC
      EPS_SCF 1.0E-6
      MAX_SCF 200
    &END SCF
  &END DFT
  
  &SUBSYS
    &CELL
      A 75.173500 0.000000 0.000000
      B 0.000000 63.222000 0.000000
      C 0.000000 0.000000 20.000000
      PERIODIC XYZ
    &END CELL
    
    &COORD
      # 4个C60分子坐标 (多分子体系用于协同效应研究)
      C  0.741520  0.000000  3.550740
      C  37.411520  0.000000  3.550740
      C  0.741520  30.840000  3.550740
      C  37.411520  30.840000  3.550740
      C  1.497300  1.212100  3.137200
      C  38.167300  1.212100  3.137200
      C  1.497300  32.052100  3.137200
      C  38.167300  32.052100  3.137200
      C  2.638100  0.741520  2.352900
      C  39.308100  0.741520  2.352900
      C  2.638100  31.581520  2.352900
      C  39.308100  31.581520  2.352900
      C  13.518480  0.000000  3.550740
      C  50.188480  0.000000  3.550740
      C  13.518480  30.840000  3.550740
      C  50.188480  30.840000  3.550740
      C  13.518480  0.000000  10.709260
      C  50.188480  0.000000  10.709260
      C  13.518480  30.840000  10.709260
      C  50.188480  30.840000  10.709260
      C  0.741520  0.000000  10.709260
      C  37.411520  0.000000  10.709260
      C  0.741520  30.840000  10.709260
      C  37.411520  30.840000  10.709260
      C  3.550740  0.741520  0.000000
      C  40.220740  0.741520  0.000000
      C  3.550740  31.581520  0.000000
      C  40.220740  31.581520  0.000000
      C  3.550740  13.518480  0.000000
      C  40.220740  13.518480  0.000000
      C  3.550740  44.358480  0.000000
      C  40.220740  44.358480  0.000000
      C  10.709260  13.518480  0.000000
      C  47.379260  13.518480  0.000000
      C  10.709260  44.358480  0.000000
      C  47.379260  44.358480  0.000000
      C  10.709260  0.741520  0.000000
      C  47.379260  0.741520  0.000000
      C  10.709260  31.581520  0.000000
      C  47.379260  31.581520  0.000000
      C  0.000000  3.550740  0.741520
      C  36.670000  3.550740  0.741520
      C  0.000000  34.390740  0.741520
      C  36.670000  34.390740  0.741520
      C  0.000000  3.550740  13.518480
      C  36.670000  3.550740  13.518480
      C  0.000000  34.390740  13.518480
      C  36.670000  34.390740  13.518480
      C  0.000000  10.709260  13.518480
      C  36.670000  10.709260  13.518480
      C  0.000000  41.549260  13.518480
      C  36.670000  41.549260  13.518480
      C  0.000000  10.709260  0.741520
      C  36.670000  10.709260  0.741520
      C  0.000000  41.549260  0.741520
      C  36.670000  41.549260  0.741520
      C  0.741520  7.130000  10.680740
      C  37.411520  7.130000  10.680740
      C  0.741520  37.970000  10.680740
      C  37.411520  37.970000  10.680740
      C  13.518480  7.130000  10.680740
      C  50.188480  7.130000  10.680740
      C  13.518480  37.970000  10.680740
      C  50.188480  37.970000  10.680740
      C  13.518480  7.130000  3.579260
      C  50.188480  7.130000  3.579260
      C  13.518480  37.970000  3.579260
      C  50.188480  37.970000  3.579260
      C  0.741520  7.130000  3.579260
      C  37.411520  7.130000  3.579260
      C  0.741520  37.970000  3.579260
      C  37.411520  37.970000  3.579260
      C  3.550740  7.871520  7.130000
      C  40.220740  7.871520  7.130000
      C  3.550740  38.711520  7.130000
      C  40.220740  38.711520  7.130000
      C  3.550740  6.388480  7.130000
      C  40.220740  6.388480  7.130000
      C  3.550740  37.228480  7.130000
      C  40.220740  37.228480  7.130000
      C  10.709260  6.388480  7.130000
      C  47.379260  6.388480  7.130000
      C  10.709260  37.228480  7.130000
      C  47.379260  37.228480  7.130000
      C  10.709260  7.871520  7.130000
      C  47.379260  7.871520  7.130000
      C  10.709260  38.711520  7.130000
      C  47.379260  38.711520  7.130000
      C  0.000000  10.680740  7.871520
      C  36.670000  10.680740  7.871520
      C  0.000000  41.520740  7.871520
      C  36.670000  41.520740  7.871520
      C  0.000000  10.680740  6.388480
      C  36.670000  10.680740  6.388480
      C  0.000000  41.520740  6.388480
      C  36.670000  41.520740  6.388480
      C  0.000000  3.579260  6.388480
      C  36.670000  3.579260  6.388480
      C  0.000000  34.419260  6.388480
      C  36.670000  34.419260  6.388480
      C  0.000000  3.579260  7.871520
      C  36.670000  3.579260  7.871520
      C  0.000000  34.419260  7.871520
      C  36.670000  34.419260  7.871520
      C  7.871520  0.000000  10.680740
      C  44.541520  0.000000  10.680740
      C  7.871520  30.840000  10.680740
      C  44.541520  30.840000  10.680740
      C  6.388480  0.000000  10.680740
      C  43.058480  0.000000  10.680740
      C  6.388480  30.840000  10.680740
      C  43.058480  30.840000  10.680740
      C  6.388480  0.000000  3.579260
      C  43.058480  0.000000  3.579260
      C  6.388480  30.840000  3.579260
      C  43.058480  30.840000  3.579260
      C  7.871520  0.000000  3.579260
      C  44.541520  0.000000  3.579260
      C  7.871520  30.840000  3.579260
      C  44.541520  30.840000  3.579260
      C  10.680740  0.741520  7.130000
      C  47.350740  0.741520  7.130000
      C  10.680740  31.581520  7.130000
      C  47.350740  31.581520  7.130000
      C  10.680740  13.518480  7.130000
      C  47.350740  13.518480  7.130000
      C  10.680740  44.358480  7.130000
      C  47.350740  44.358480  7.130000
      C  3.579260  13.518480  7.130000
      C  40.249260  13.518480  7.130000
      C  3.579260  44.358480  7.130000
      C  40.249260  44.358480  7.130000
      C  3.579260  0.741520  7.130000
      C  40.249260  0.741520  7.130000
      C  3.579260  31.581520  7.130000
      C  40.249260  31.581520  7.130000
      C  7.130000  3.550740  7.871520
      C  43.800000  3.550740  7.871520
      C  7.130000  34.390740  7.871520
      C  43.800000  34.390740  7.871520
      C  7.130000  3.550740  6.388480
      C  43.800000  3.550740  6.388480
      C  7.130000  34.390740  6.388480
      C  43.800000  34.390740  6.388480
      C  7.130000  10.709260  6.388480
      C  43.800000  10.709260  6.388480
      C  7.130000  41.549260  6.388480
      C  43.800000  41.549260  6.388480
      C  7.130000  10.709260  7.871520
      C  43.800000  10.709260  7.871520
      C  7.130000  41.549260  7.871520
      C  43.800000  41.549260  7.871520
      C  7.871520  7.130000  3.550740
      C  44.541520  7.130000  3.550740
      C  7.871520  37.970000  3.550740
      C  44.541520  37.970000  3.550740
      C  6.388480  7.130000  3.550740
      C  43.058480  7.130000  3.550740
      C  6.388480  37.970000  3.550740
      C  43.058480  37.970000  3.550740
      C  6.388480  7.130000  10.709260
      C  43.058480  7.130000  10.709260
      C  6.388480  37.970000  10.709260
      C  43.058480  37.970000  10.709260
      C  7.871520  7.130000  10.709260
      C  44.541520  7.130000  10.709260
      C  7.871520  37.970000  10.709260
      C  44.541520  37.970000  10.709260
      C  10.680740  7.871520  0.000000
      C  47.350740  7.871520  0.000000
      C  10.680740  38.711520  0.000000
      C  47.350740  38.711520  0.000000
      C  10.680740  6.388480  0.000000
      C  47.350740  6.388480  0.000000
      C  10.680740  37.228480  0.000000
      C  47.350740  37.228480  0.000000
      C  3.579260  6.388480  0.000000
      C  40.249260  6.388480  0.000000
      C  3.579260  37.228480  0.000000
      C  40.249260  37.228480  0.000000
      C  3.579260  7.871520  0.000000
      C  40.249260  7.871520  0.000000
      C  3.579260  38.711520  0.000000
      C  40.249260  38.711520  0.000000
      C  7.130000  10.680740  0.741520
      C  43.800000  10.680740  0.741520
      C  7.130000  41.520740  0.741520
      C  43.800000  41.520740  0.741520
      C  7.130000  10.680740  13.518480
      C  43.800000  10.680740  13.518480
      C  7.130000  41.520740  13.518480
      C  43.800000  41.520740  13.518480
      C  7.130000  3.579260  13.518480
      C  43.800000  3.579260  13.518480
      C  7.130000  34.419260  13.518480
      C  43.800000  34.419260  13.518480
      C  7.130000  3.579260  0.741520
      C  43.800000  3.579260  0.741520
      C  7.130000  34.419260  0.741520
      C  43.800000  34.419260  0.741520
      C  12.762700  13.047900  3.137200
      C  49.432700  13.047900  3.137200
      C  12.762700  43.887900  3.137200
      C  49.432700  43.887900  3.137200
      C  12.762700  1.212100  11.122800
      C  49.432700  1.212100  11.122800
      C  12.762700  32.052100  11.122800
      C  49.432700  32.052100  11.122800
      C  1.497300  13.047900  11.122800
      C  38.167300  13.047900  11.122800
      C  1.497300  43.887900  11.122800
      C  38.167300  43.887900  11.122800
      C  3.137200  1.497300  1.212100
      C  39.807200  1.497300  1.212100
      C  3.137200  32.337300  1.212100
      C  39.807200  32.337300  1.212100
      C  3.137200  12.762700  13.047900
      C  39.807200  12.762700  13.047900
      C  3.137200  43.602700  13.047900
      C  39.807200  43.602700  13.047900
      C  11.122800  12.762700  1.212100
      C  47.792800  12.762700  1.212100
      C  11.122800  43.602700  1.212100
      C  47.792800  43.602700  1.212100
      C  11.122800  1.497300  13.047900
      C  47.792800  1.497300  13.047900
      C  11.122800  32.337300  13.047900
      C  47.792800  32.337300  13.047900
      C  1.212100  3.137200  1.497300
      C  37.882100  3.137200  1.497300
      C  1.212100  33.977200  1.497300
      C  37.882100  33.977200  1.497300
      C  13.047900  3.137200  12.762700
      C  49.717900  3.137200  12.762700
      C  13.047900  33.977200  12.762700
      C  49.717900  33.977200  12.762700
      C  1.212100  11.122800  12.762700
      C  37.882100  11.122800  12.762700
      C  1.212100  41.962800  12.762700
      C  37.882100  41.962800  12.762700
      # 掺杂原子坐标
      Li  3.000000  0.000000  0.000000
      Li  3.500000  0.300000  0.000000
      Li  4.000000  0.600000  0.000000
      Li  4.500000  0.900000  0.000000
      Li  5.000000  1.200000  0.000000
      Li  5.500000  1.500000  0.000000
    &END COORD
    
    &KIND C
      BASIS_SET MOLOPT-DZVP
      POTENTIAL GTH-PBE
    &END KIND
    
    &KIND Li
      BASIS_SET MOLOPT-DZVP
      POTENTIAL GTH-PBE
    &END KIND
  &END SUBSYS
&END FORCE_EVAL
