&GLOBAL
  PROJECT C60_test
  RUN_TYPE ENERGY
  PRINT_LEVEL LOW
&END GLOBAL
&FORCE_EVAL
  METHOD Quickstep
  &DFT
    BASIS_SET_FILE_NAME BASIS_MOLOPT
    POTENTIAL_FILE_NAME GTH_POTENTIALS
    &MGRID
      CUTOFF 400
    &END MGRID
    &QS
      METHOD GPW
    &END QS
    &SCF
      SCF_GUESS ATOMIC
      MAX_SCF 50
      EPS_SCF 1.0E-6
      IGNORE_CONVERGENCE_FAILURE TRUE
      &OT
        MINIMIZER CG
        PRECONDITIONER FULL_SINGLE_INVERSE
      &END OT
    &END SCF
    &XC
      &XC_FUNCTIONAL
        &PBE
        &END PBE
      &END XC_FUNCTIONAL
    &END XC
  &END DFT
  &SUBSYS
    &CELL
A  14.0    0.0    0.0
B   0.0   14.0    0.0
C   0.0    0.0   14.0
    &END CELL
    &COORD
C         0.0000000000        0.0000000000        0.0000000000
C         1.4000000000        0.0000000000        0.0000000000
C         0.7000000000        1.2124355650        0.0000000000
C         0.7000000000        0.4041451883        1.1428571429
C         2.1000000000        0.4041451883        1.1428571429
C         1.4000000000        1.2124355650        1.1428571429
    &END COORD
    &KIND C
      BASIS_SET DZVP-MOLOPT-GTH
      POTENTIAL GTH-PBE
    &END KIND
  &END SUBSYS
&END FORCE_EVAL